; --------------------------------------------------------------------------
; File     : ODRL406-1.smt2
; Domain   : ODRL Spatial Axis Profile
; Problem  : ★★★☆☆ Medium: 2 axes, near-miss gap=2 on both axes
; Expected : unsat
; Verdict  : Conflict
; Category : PolicyQuality
;
; ODRL Policy (Turtle):
;   @prefix odrl: <http://www.w3.org/ns/odrl/2/> .
;   @prefix oax:  <http://w3id.org/odrl/spatial-axis#> .
;   @prefix ex:   <https://example.org/> .
;
;   ex:policyA a odrl:Set ;
;     odrl:permission [
;       odrl:action odrl:use ;
;       odrl:constraint [
;         odrl:leftOperand oax:absoluteSizeWidth ;
;         odrl:operator odrl:lteq ;
;         odrl:rightOperand "599"^^xsd:decimal ] ;
;       odrl:constraint [
;         odrl:leftOperand oax:absoluteSizeHeight ;
;         odrl:operator odrl:lteq ;
;         odrl:rightOperand "399"^^xsd:decimal ] ;
;     ] .
;
;   ex:policyB a odrl:Set ;
;     odrl:permission [
;       odrl:action odrl:use ;
;       odrl:constraint [
;         odrl:leftOperand oax:absoluteSizeWidth ;
;         odrl:operator odrl:gteq ;
;         odrl:rightOperand "601"^^xsd:decimal ] ;
;       odrl:constraint [
;         odrl:leftOperand oax:absoluteSizeHeight ;
;         odrl:operator odrl:gteq ;
;         odrl:rightOperand "401"^^xsd:decimal ] ;
;     ] .
;
; Gen      : gen_axis_suite.py
; --------------------------------------------------------------------------
(set-logic QF_LRA)
(declare-const x Real)
(declare-const y Real)

; --- Axis 1: width ---
(assert (> x 0))
; width: lteq 599  ∧  gteq 601
(assert (<= x 599))
(assert (>= x 601))

; --- Axis 2: height ---
(assert (> y 0))
; height: lteq 399  ∧  gteq 401
(assert (<= y 399))
(assert (>= y 401))

; Result: unsat → Conflict
(check-sat)
(exit)
